src/prevOutput/loop_new.count_by_1_variant.txt
Invariant Found:	((-1*i <= 1))


Time Statistics:
	Total Time: 16.792151232002652
	Total Initialization and Re-initialization Time: 7.5082810150051955
	Total MCMC time: 8.87030426300771
	Total Z3 Time: 0.41356595398974605
	Total MCMC iterations forall threads: 13
	Total Z3 calls: 2
	Number of Threads: 4
